NAME: instance_2975
TYPE: TSP
DIMENSION: 20
EDGE_WEIGHT_TYPE: EUC_2D
NODE_COORD_SECTION
0 49.29 51.81
1 33.95 62.88
2 79.64 37.53
3 97.22 39.64
4 97.32 42.66
5 35.99 58.15
6 46.09 50.55
7 13.23 46.62
8 65.50 14.30
9 1.67 62.54
10 35.58 49.32
11 75.33 85.31
12 40.27 77.52
13 22.24 27.72
14 55.07 62.57
15 12.78 81.04
16 68.40 45.90
17 69.96 81.23
18 67.40 98.05
19 38.18 48.77
EOF
